NAME: line_30_2
TYPE: TSP
COMMENT: line_30_2
DIMENSION: 30
EDGE_WEIGHT_TYPE: EUC_2D
NODE_COORD_SECTION
1 0.0 296.0
2 0.0 219.0
3 0.0 283.0
4 0.0 291.0
5 0.0 261.0
6 0.0 144.0
7 0.0 92.0
8 0.0 100.0
9 0.0 105.0
10 0.0 77.0
11 0.0 109.0
12 0.0 99.0
13 0.0 267.0
14 0.0 262.0
15 0.0 212.0
16 0.0 31.0
17 0.0 76.0
18 0.0 75.0
19 0.0 24.0
20 0.0 228.0
21 0.0 96.0
22 0.0 158.0
23 0.0 171.0
24 0.0 170.0
25 0.0 295.0
26 0.0 183.0
27 0.0 34.0
28 0.0 288.0
29 0.0 254.0
30 0.0 224.0
